(set-info :smt-lib-version 2.6)
(set-logic QF_NIA)
(set-info :source |
Generated by: Cristina Borralleras, Daniel Larraz, Albert Oliveras, Enric Rodriguez-Carbonell, Albert Rubio
Generated on: 2017-04-27
Generator: VeryMax
Application: Termination proving
Target solver: barcelogic
|)
(set-info :license "https://creativecommons.org/licenses/by/4.0/")
(set-info :category "industrial")
(set-info :status unsat)
(declare-fun Nl2arg11 () Int)
(declare-fun Nl2arg21 () Int)
(declare-fun Nl2arg31 () Int)
(declare-fun lam0n0 () Int)
(declare-fun lam0n1 () Int)
(declare-fun lam0n2 () Int)
(declare-fun lam0n4 () Int)
(declare-fun Nl2CT1 () Int)
(declare-fun lam0n3 () Int)
(declare-fun lam1n0 () Int)
(declare-fun lam1n1 () Int)
(declare-fun lam1n2 () Int)
(declare-fun lam1n4 () Int)
(declare-fun lam1n3 () Int)
(declare-fun lam2n0 () Int)
(declare-fun lam2n1 () Int)
(declare-fun lam2n2 () Int)
(declare-fun lam2n4 () Int)
(declare-fun lam2n3 () Int)
(declare-fun lam3n0 () Int)
(declare-fun lam3n1 () Int)
(declare-fun lam3n2 () Int)
(declare-fun lam3n4 () Int)
(declare-fun lam3n3 () Int)
(declare-fun lam4n0 () Int)
(declare-fun lam4n1 () Int)
(declare-fun lam4n3 () Int)
(declare-fun lam4n2 () Int)
(declare-fun lam5n0 () Int)
(declare-fun lam5n1 () Int)
(declare-fun lam5n3 () Int)
(declare-fun lam5n2 () Int)
(declare-fun lam6n0 () Int)
(declare-fun lam6n1 () Int)
(declare-fun lam6n3 () Int)
(declare-fun lam6n2 () Int)
(declare-fun lam7n0 () Int)
(declare-fun lam7n1 () Int)
(declare-fun lam7n3 () Int)
(declare-fun lam7n2 () Int)
(declare-fun lam8n0 () Int)
(declare-fun lam8n2 () Int)
(declare-fun lam8n1 () Int)
(declare-fun lam9n0 () Int)
(declare-fun lam9n2 () Int)
(declare-fun lam9n1 () Int)
(declare-fun lam10n0 () Int)
(declare-fun lam10n2 () Int)
(declare-fun lam10n1 () Int)
(declare-fun lam11n0 () Int)
(declare-fun lam11n2 () Int)
(declare-fun lam11n1 () Int)
(declare-fun lam14n0 () Int)
(declare-fun lam14n1 () Int)
(declare-fun lam14n2 () Int)
(declare-fun lam14n4 () Int)
(declare-fun RFN1_CT () Int)
(declare-fun RFN1_arg1 () Int)
(declare-fun RFN1_arg2 () Int)
(declare-fun RFN1_arg3 () Int)
(declare-fun lam14n3 () Int)
(declare-fun lam17n0 () Int)
(declare-fun lam17n1 () Int)
(declare-fun lam17n2 () Int)
(declare-fun lam17n4 () Int)
(declare-fun lam17n3 () Int)
(declare-fun lam20n0 () Int)
(declare-fun lam20n1 () Int)
(declare-fun lam20n3 () Int)
(declare-fun lam20n2 () Int)
(declare-fun lam23n0 () Int)
(declare-fun lam23n1 () Int)
(declare-fun lam23n3 () Int)
(declare-fun lam23n2 () Int)
(declare-fun lam26n0 () Int)
(declare-fun lam26n2 () Int)
(declare-fun lam26n1 () Int)
(declare-fun lam29n0 () Int)
(declare-fun lam29n2 () Int)
(declare-fun lam29n1 () Int)
(declare-fun lam15n0 () Int)
(declare-fun lam15n1 () Int)
(declare-fun lam15n2 () Int)
(declare-fun lam15n4 () Int)
(declare-fun lam15n3 () Int)
(declare-fun lam16n0 () Int)
(declare-fun lam16n1 () Int)
(declare-fun lam16n2 () Int)
(declare-fun lam16n4 () Int)
(declare-fun lam16n3 () Int)
(declare-fun lam30n0 () Int)
(declare-fun lam30n1 () Int)
(declare-fun lam30n2 () Int)
(declare-fun lam30n4 () Int)
(declare-fun lam30n3 () Int)
(assert ( and ( <= ( - 9 ) Nl2arg11 ) ( <= Nl2arg11 9 ) ( <= ( - 9 ) Nl2arg21 ) ( <= Nl2arg21 9 ) ( <= ( - 9 ) Nl2arg31 ) ( <= Nl2arg31 9 ) ))
(assert ( or ( and ( >= lam0n0 0 ) ( >= lam0n1 0 ) ( >= lam0n2 0 ) ( >= lam0n4 0 ) ( > ( + ( * ( - 1 ) lam0n0 ) ( * 2 lam0n1 ) ( * ( - 9 ) lam0n2 ) ( * Nl2CT1 lam0n4 ) ( - 1 ) ) 0 ) ( = ( + ( * 1 lam0n0 ) ( * Nl2arg11 lam0n4 ) ) 0 ) ( = ( + ( * 1 lam0n3 ) ( * Nl2arg21 lam0n4 ) ) 0 ) ( = ( + ( * ( - 1 ) lam0n1 ) ( * 1 lam0n2 ) ( * Nl2arg31 lam0n4 ) ) 0 ) ) ( and ( >= lam1n0 0 ) ( >= lam1n1 0 ) ( >= lam1n2 0 ) ( >= lam1n4 0 ) ( > ( + ( * ( - 1 ) lam1n0 ) ( * 2 lam1n1 ) ( * ( - 9 ) lam1n2 ) ( * Nl2CT1 lam1n4 ) ( - 1 ( + ( + ( + Nl2CT1 ( * Nl2arg11 0 ) ) ( * Nl2arg21 0 ) ) ( * Nl2arg31 ( - 1 ) ) ) ) ) 0 ) ( = ( + ( * 1 lam1n0 ) ( * Nl2arg11 lam1n4 ) ) 0 ) ( = ( + ( * 1 lam1n3 ) ( * Nl2arg21 lam1n4 ) ) 0 ) ( = ( + ( * ( - 1 ) lam1n1 ) ( * 1 lam1n2 ) ( * Nl2arg31 lam1n4 ) ( - ( + 0 ( * Nl2arg31 1 ) ) ) ) 0 ) ) ))
(assert ( or ( and ( >= lam2n0 0 ) ( >= lam2n1 0 ) ( >= lam2n2 0 ) ( >= lam2n4 0 ) ( > ( + ( * ( - 1 ) lam2n0 ) ( * 2 lam2n1 ) ( * ( - 9 ) lam2n2 ) ( * ( - 1 ) lam2n3 ) ( * Nl2CT1 lam2n4 ) ( - 1 ) ) 0 ) ( = ( + ( * 1 lam2n0 ) ( * Nl2arg11 lam2n4 ) ) 0 ) ( = ( + ( * 1 lam2n3 ) ( * Nl2arg21 lam2n4 ) ) 0 ) ( = ( + ( * ( - 1 ) lam2n1 ) ( * 1 lam2n2 ) ( * Nl2arg31 lam2n4 ) ) 0 ) ) ( and ( >= lam3n0 0 ) ( >= lam3n1 0 ) ( >= lam3n2 0 ) ( >= lam3n4 0 ) ( > ( + ( * ( - 1 ) lam3n0 ) ( * 2 lam3n1 ) ( * ( - 9 ) lam3n2 ) ( * ( - 1 ) lam3n3 ) ( * Nl2CT1 lam3n4 ) ( - 1 ( + ( + ( + Nl2CT1 ( * Nl2arg11 1 ) ) ( * Nl2arg21 1 ) ) ( * Nl2arg31 1 ) ) ) ) 0 ) ( = ( + ( * 1 lam3n0 ) ( * Nl2arg11 lam3n4 ) ) 0 ) ( = ( + ( * 1 lam3n3 ) ( * Nl2arg21 lam3n4 ) ) 0 ) ( = ( + ( * ( - 1 ) lam3n1 ) ( * 1 lam3n2 ) ( * Nl2arg31 lam3n4 ) ( - ( + 0 ( * Nl2arg31 1 ) ) ) ) 0 ) ) ))
(assert ( or ( and ( >= lam4n0 0 ) ( >= lam4n1 0 ) ( >= lam4n3 0 ) ( > ( + ( * ( - 1 ) lam4n0 ) ( * 11 lam4n1 ) ( * Nl2CT1 lam4n3 ) ( - 1 ) ) 0 ) ( = ( + ( * 1 lam4n0 ) ( * Nl2arg11 lam4n3 ) ) 0 ) ( = ( + ( * 1 lam4n2 ) ( * Nl2arg21 lam4n3 ) ) 0 ) ( = ( + ( * ( - 1 ) lam4n1 ) ( * Nl2arg31 lam4n3 ) ) 0 ) ) ( and ( >= lam5n0 0 ) ( >= lam5n1 0 ) ( >= lam5n3 0 ) ( > ( + ( * ( - 1 ) lam5n0 ) ( * 11 lam5n1 ) ( * Nl2CT1 lam5n3 ) ( - 1 ( + ( + ( + Nl2CT1 ( * Nl2arg11 0 ) ) ( * Nl2arg21 0 ) ) ( * Nl2arg31 ( - 1 ) ) ) ) ) 0 ) ( = ( + ( * 1 lam5n0 ) ( * Nl2arg11 lam5n3 ) ) 0 ) ( = ( + ( * 1 lam5n2 ) ( * Nl2arg21 lam5n3 ) ) 0 ) ( = ( + ( * ( - 1 ) lam5n1 ) ( * Nl2arg31 lam5n3 ) ( - ( + 0 ( * Nl2arg31 1 ) ) ) ) 0 ) ) ))
(assert ( or ( and ( >= lam6n0 0 ) ( >= lam6n1 0 ) ( >= lam6n3 0 ) ( > ( + ( * ( - 1 ) lam6n0 ) ( * 11 lam6n1 ) ( * ( - 1 ) lam6n2 ) ( * Nl2CT1 lam6n3 ) ( - 1 ) ) 0 ) ( = ( + ( * 1 lam6n0 ) ( * Nl2arg11 lam6n3 ) ) 0 ) ( = ( + ( * 1 lam6n2 ) ( * Nl2arg21 lam6n3 ) ) 0 ) ( = ( + ( * ( - 1 ) lam6n1 ) ( * Nl2arg31 lam6n3 ) ) 0 ) ) ( and ( >= lam7n0 0 ) ( >= lam7n1 0 ) ( >= lam7n3 0 ) ( > ( + ( * ( - 1 ) lam7n0 ) ( * 11 lam7n1 ) ( * ( - 1 ) lam7n2 ) ( * Nl2CT1 lam7n3 ) ( - 1 ( + ( + ( + Nl2CT1 ( * Nl2arg11 1 ) ) ( * Nl2arg21 1 ) ) ( * Nl2arg31 1 ) ) ) ) 0 ) ( = ( + ( * 1 lam7n0 ) ( * Nl2arg11 lam7n3 ) ) 0 ) ( = ( + ( * 1 lam7n2 ) ( * Nl2arg21 lam7n3 ) ) 0 ) ( = ( + ( * ( - 1 ) lam7n1 ) ( * Nl2arg31 lam7n3 ) ( - ( + 0 ( * Nl2arg31 1 ) ) ) ) 0 ) ) ))
(assert ( or ( and ( >= lam8n0 0 ) ( >= lam8n2 0 ) ( > ( + ( * ( - 1 ) lam8n0 ) ( * ( - 1 ) lam8n1 ) ( * Nl2CT1 lam8n2 ) ( - 1 ) ) 0 ) ( = ( + ( * 1 lam8n0 ) ( * Nl2arg11 lam8n2 ) ) 0 ) ( = ( * Nl2arg21 lam8n2 ) 0 ) ( = ( + ( * 1 lam8n1 ) ( * Nl2arg31 lam8n2 ) ) 0 ) ) ( and ( >= lam9n0 0 ) ( >= lam9n2 0 ) ( > ( + ( * ( - 1 ) lam9n0 ) ( * ( - 1 ) lam9n1 ) ( * Nl2CT1 lam9n2 ) ( - 1 ( + ( + ( + Nl2CT1 ( * Nl2arg11 1 ) ) ( * Nl2arg21 1 ) ) ( * Nl2arg31 2 ) ) ) ) 0 ) ( = ( + ( * 1 lam9n0 ) ( * Nl2arg11 lam9n2 ) ) 0 ) ( = ( * Nl2arg21 lam9n2 ) 0 ) ( = ( + ( * 1 lam9n1 ) ( * Nl2arg31 lam9n2 ) ) 0 ) ) ))
(assert ( or ( and ( >= lam10n0 0 ) ( >= lam10n2 0 ) ( > ( + ( * ( - 1 ) lam10n0 ) ( * ( - 10 ) lam10n1 ) ( * Nl2CT1 lam10n2 ) ( - 1 ) ) 0 ) ( = ( + ( * 1 lam10n0 ) ( * Nl2arg11 lam10n2 ) ) 0 ) ( = ( * Nl2arg21 lam10n2 ) 0 ) ( = ( + ( * 1 lam10n1 ) ( * Nl2arg31 lam10n2 ) ) 0 ) ) ( and ( >= lam11n0 0 ) ( >= lam11n2 0 ) ( > ( + ( * ( - 1 ) lam11n0 ) ( * ( - 10 ) lam11n1 ) ( * Nl2CT1 lam11n2 ) ( - 1 ( + ( + ( + Nl2CT1 ( * Nl2arg11 0 ) ) ( * Nl2arg21 0 ) ) ( * Nl2arg31 9 ) ) ) ) 0 ) ( = ( + ( * 1 lam11n0 ) ( * Nl2arg11 lam11n2 ) ) 0 ) ( = ( * Nl2arg21 lam11n2 ) 0 ) ( = ( + ( * 1 lam11n1 ) ( * Nl2arg31 lam11n2 ) ) 0 ) ) ))
(assert ( and ( or ( and ( >= lam0n0 0 ) ( >= lam0n1 0 ) ( >= lam0n2 0 ) ( >= lam0n4 0 ) ( > ( + ( * ( - 1 ) lam0n0 ) ( * 2 lam0n1 ) ( * ( - 9 ) lam0n2 ) ( * Nl2CT1 lam0n4 ) ( - 1 ) ) 0 ) ( = ( + ( * 1 lam0n0 ) ( * Nl2arg11 lam0n4 ) ) 0 ) ( = ( + ( * 1 lam0n3 ) ( * Nl2arg21 lam0n4 ) ) 0 ) ( = ( + ( * ( - 1 ) lam0n1 ) ( * 1 lam0n2 ) ( * Nl2arg31 lam0n4 ) ) 0 ) ) ( and ( >= lam14n0 0 ) ( >= lam14n1 0 ) ( >= lam14n2 0 ) ( >= lam14n4 0 ) ( > ( + ( * ( - 1 ) lam14n0 ) ( * 2 lam14n1 ) ( * ( - 9 ) lam14n2 ) ( * Nl2CT1 lam14n4 ) ( - 1 ( - ( + ( + ( + RFN1_CT ( * RFN1_arg1 0 ) ) ( * RFN1_arg2 0 ) ) ( * RFN1_arg3 ( - 1 ) ) ) RFN1_CT ) ) ) 0 ) ( = ( + ( * 1 lam14n0 ) ( * Nl2arg11 lam14n4 ) ( - ( - RFN1_arg1 ) ) ) 0 ) ( = ( + ( * 1 lam14n3 ) ( * Nl2arg21 lam14n4 ) ( - ( - RFN1_arg2 ) ) ) 0 ) ( = ( + ( * ( - 1 ) lam14n1 ) ( * 1 lam14n2 ) ( * Nl2arg31 lam14n4 ) ( - ( - ( + 0 ( * RFN1_arg3 1 ) ) RFN1_arg3 ) ) ) 0 ) ) ) ( or ( and ( >= lam2n0 0 ) ( >= lam2n1 0 ) ( >= lam2n2 0 ) ( >= lam2n4 0 ) ( > ( + ( * ( - 1 ) lam2n0 ) ( * 2 lam2n1 ) ( * ( - 9 ) lam2n2 ) ( * ( - 1 ) lam2n3 ) ( * Nl2CT1 lam2n4 ) ( - 1 ) ) 0 ) ( = ( + ( * 1 lam2n0 ) ( * Nl2arg11 lam2n4 ) ) 0 ) ( = ( + ( * 1 lam2n3 ) ( * Nl2arg21 lam2n4 ) ) 0 ) ( = ( + ( * ( - 1 ) lam2n1 ) ( * 1 lam2n2 ) ( * Nl2arg31 lam2n4 ) ) 0 ) ) ( and ( >= lam17n0 0 ) ( >= lam17n1 0 ) ( >= lam17n2 0 ) ( >= lam17n4 0 ) ( > ( + ( * ( - 1 ) lam17n0 ) ( * 2 lam17n1 ) ( * ( - 9 ) lam17n2 ) ( * ( - 1 ) lam17n3 ) ( * Nl2CT1 lam17n4 ) ( - 1 ( - ( + ( + ( + RFN1_CT ( * RFN1_arg1 1 ) ) ( * RFN1_arg2 1 ) ) ( * RFN1_arg3 1 ) ) RFN1_CT ) ) ) 0 ) ( = ( + ( * 1 lam17n0 ) ( * Nl2arg11 lam17n4 ) ( - ( - RFN1_arg1 ) ) ) 0 ) ( = ( + ( * 1 lam17n3 ) ( * Nl2arg21 lam17n4 ) ( - ( - RFN1_arg2 ) ) ) 0 ) ( = ( + ( * ( - 1 ) lam17n1 ) ( * 1 lam17n2 ) ( * Nl2arg31 lam17n4 ) ( - ( - ( + 0 ( * RFN1_arg3 1 ) ) RFN1_arg3 ) ) ) 0 ) ) ) ( or ( and ( >= lam4n0 0 ) ( >= lam4n1 0 ) ( >= lam4n3 0 ) ( > ( + ( * ( - 1 ) lam4n0 ) ( * 11 lam4n1 ) ( * Nl2CT1 lam4n3 ) ( - 1 ) ) 0 ) ( = ( + ( * 1 lam4n0 ) ( * Nl2arg11 lam4n3 ) ) 0 ) ( = ( + ( * 1 lam4n2 ) ( * Nl2arg21 lam4n3 ) ) 0 ) ( = ( + ( * ( - 1 ) lam4n1 ) ( * Nl2arg31 lam4n3 ) ) 0 ) ) ( and ( >= lam20n0 0 ) ( >= lam20n1 0 ) ( >= lam20n3 0 ) ( > ( + ( * ( - 1 ) lam20n0 ) ( * 11 lam20n1 ) ( * Nl2CT1 lam20n3 ) ( - 1 ( - ( + ( + ( + RFN1_CT ( * RFN1_arg1 0 ) ) ( * RFN1_arg2 0 ) ) ( * RFN1_arg3 ( - 1 ) ) ) RFN1_CT ) ) ) 0 ) ( = ( + ( * 1 lam20n0 ) ( * Nl2arg11 lam20n3 ) ( - ( - RFN1_arg1 ) ) ) 0 ) ( = ( + ( * 1 lam20n2 ) ( * Nl2arg21 lam20n3 ) ( - ( - RFN1_arg2 ) ) ) 0 ) ( = ( + ( * ( - 1 ) lam20n1 ) ( * Nl2arg31 lam20n3 ) ( - ( - ( + 0 ( * RFN1_arg3 1 ) ) RFN1_arg3 ) ) ) 0 ) ) ) ( or ( and ( >= lam6n0 0 ) ( >= lam6n1 0 ) ( >= lam6n3 0 ) ( > ( + ( * ( - 1 ) lam6n0 ) ( * 11 lam6n1 ) ( * ( - 1 ) lam6n2 ) ( * Nl2CT1 lam6n3 ) ( - 1 ) ) 0 ) ( = ( + ( * 1 lam6n0 ) ( * Nl2arg11 lam6n3 ) ) 0 ) ( = ( + ( * 1 lam6n2 ) ( * Nl2arg21 lam6n3 ) ) 0 ) ( = ( + ( * ( - 1 ) lam6n1 ) ( * Nl2arg31 lam6n3 ) ) 0 ) ) ( and ( >= lam23n0 0 ) ( >= lam23n1 0 ) ( >= lam23n3 0 ) ( > ( + ( * ( - 1 ) lam23n0 ) ( * 11 lam23n1 ) ( * ( - 1 ) lam23n2 ) ( * Nl2CT1 lam23n3 ) ( - 1 ( - ( + ( + ( + RFN1_CT ( * RFN1_arg1 1 ) ) ( * RFN1_arg2 1 ) ) ( * RFN1_arg3 1 ) ) RFN1_CT ) ) ) 0 ) ( = ( + ( * 1 lam23n0 ) ( * Nl2arg11 lam23n3 ) ( - ( - RFN1_arg1 ) ) ) 0 ) ( = ( + ( * 1 lam23n2 ) ( * Nl2arg21 lam23n3 ) ( - ( - RFN1_arg2 ) ) ) 0 ) ( = ( + ( * ( - 1 ) lam23n1 ) ( * Nl2arg31 lam23n3 ) ( - ( - ( + 0 ( * RFN1_arg3 1 ) ) RFN1_arg3 ) ) ) 0 ) ) ) ( or ( and ( >= lam8n0 0 ) ( >= lam8n2 0 ) ( > ( + ( * ( - 1 ) lam8n0 ) ( * ( - 1 ) lam8n1 ) ( * Nl2CT1 lam8n2 ) ( - 1 ) ) 0 ) ( = ( + ( * 1 lam8n0 ) ( * Nl2arg11 lam8n2 ) ) 0 ) ( = ( * Nl2arg21 lam8n2 ) 0 ) ( = ( + ( * 1 lam8n1 ) ( * Nl2arg31 lam8n2 ) ) 0 ) ) ( and ( >= lam26n0 0 ) ( >= lam26n2 0 ) ( > ( + ( * ( - 1 ) lam26n0 ) ( * ( - 1 ) lam26n1 ) ( * Nl2CT1 lam26n2 ) ( - 1 ( - ( + ( + ( + RFN1_CT ( * RFN1_arg1 1 ) ) ( * RFN1_arg2 1 ) ) ( * RFN1_arg3 2 ) ) RFN1_CT ) ) ) 0 ) ( = ( + ( * 1 lam26n0 ) ( * Nl2arg11 lam26n2 ) ( - ( - RFN1_arg1 ) ) ) 0 ) ( = ( + ( * Nl2arg21 lam26n2 ) ( - ( - RFN1_arg2 ) ) ) 0 ) ( = ( + ( * 1 lam26n1 ) ( * Nl2arg31 lam26n2 ) ( - ( - RFN1_arg3 ) ) ) 0 ) ) ) ( or ( and ( >= lam10n0 0 ) ( >= lam10n2 0 ) ( > ( + ( * ( - 1 ) lam10n0 ) ( * ( - 10 ) lam10n1 ) ( * Nl2CT1 lam10n2 ) ( - 1 ) ) 0 ) ( = ( + ( * 1 lam10n0 ) ( * Nl2arg11 lam10n2 ) ) 0 ) ( = ( * Nl2arg21 lam10n2 ) 0 ) ( = ( + ( * 1 lam10n1 ) ( * Nl2arg31 lam10n2 ) ) 0 ) ) ( and ( >= lam29n0 0 ) ( >= lam29n2 0 ) ( > ( + ( * ( - 1 ) lam29n0 ) ( * ( - 10 ) lam29n1 ) ( * Nl2CT1 lam29n2 ) ( - 1 ( - ( + ( + ( + RFN1_CT ( * RFN1_arg1 0 ) ) ( * RFN1_arg2 0 ) ) ( * RFN1_arg3 9 ) ) RFN1_CT ) ) ) 0 ) ( = ( + ( * 1 lam29n0 ) ( * Nl2arg11 lam29n2 ) ( - ( - RFN1_arg1 ) ) ) 0 ) ( = ( + ( * Nl2arg21 lam29n2 ) ( - ( - RFN1_arg2 ) ) ) 0 ) ( = ( + ( * 1 lam29n1 ) ( * Nl2arg31 lam29n2 ) ( - ( - RFN1_arg3 ) ) ) 0 ) ) ) ))
(assert ( and ( and ( and ( >= lam15n0 0 ) ( >= lam15n1 0 ) ( >= lam15n2 0 ) ( >= lam15n4 0 ) ( > ( + ( * ( - 1 ) lam15n0 ) ( * 2 lam15n1 ) ( * ( - 9 ) lam15n2 ) ( * ( - 1 ) lam15n3 ) ( * Nl2CT1 lam15n4 ) ( - 1 ( - RFN1_CT ) ) ) 0 ) ( = ( + ( * 1 lam15n0 ) ( * Nl2arg11 lam15n4 ) ( - ( - RFN1_arg1 ) ) ) 0 ) ( = ( + ( * 1 lam15n3 ) ( * Nl2arg21 lam15n4 ) ( - ( - RFN1_arg2 ) ) ) 0 ) ( = ( + ( * ( - 1 ) lam15n1 ) ( * 1 lam15n2 ) ( * Nl2arg31 lam15n4 ) ( - ( - RFN1_arg3 ) ) ) 0 ) ) ( and ( >= lam16n0 0 ) ( >= lam16n1 0 ) ( >= lam16n2 0 ) ( >= lam16n4 0 ) ( > ( + ( * ( - 1 ) lam16n0 ) ( * 2 lam16n1 ) ( * ( - 9 ) lam16n2 ) ( * ( - 1 ) lam16n3 ) ( * Nl2CT1 lam16n4 ) ( - 1 ( + ( - ( + ( + ( + RFN1_CT ( * RFN1_arg1 1 ) ) ( * RFN1_arg2 1 ) ) ( * RFN1_arg3 1 ) ) RFN1_CT ) 1 ) ) ) 0 ) ( = ( + ( * 1 lam16n0 ) ( * Nl2arg11 lam16n4 ) ( - ( - RFN1_arg1 ) ) ) 0 ) ( = ( + ( * 1 lam16n3 ) ( * Nl2arg21 lam16n4 ) ( - ( - RFN1_arg2 ) ) ) 0 ) ( = ( + ( * ( - 1 ) lam16n1 ) ( * 1 lam16n2 ) ( * Nl2arg31 lam16n4 ) ( - ( - ( + 0 ( * RFN1_arg3 1 ) ) RFN1_arg3 ) ) ) 0 ) ) ) ( and ( >= lam30n0 0 ) ( >= lam30n1 0 ) ( >= lam30n2 0 ) ( >= lam30n4 0 ) ( > ( + ( * ( - 1 ) lam30n0 ) ( * 2 lam30n1 ) ( * ( - 9 ) lam30n2 ) ( * ( - 1 ) lam30n3 ) ( * ( + ( - Nl2CT1 ) 1 ) lam30n4 ) ( - 1 ) ) 0 ) ( = ( + ( * 1 lam30n0 ) ( * ( - Nl2arg11 ) lam30n4 ) ) 0 ) ( = ( + ( * 1 lam30n3 ) ( * ( - Nl2arg21 ) lam30n4 ) ) 0 ) ( = ( + ( * ( - 1 ) lam30n1 ) ( * 1 lam30n2 ) ( * ( - Nl2arg31 ) lam30n4 ) ) 0 ) ) ))
(check-sat)
(exit)
